CMD:
./solvers/bin/cadical --plain --no-reduce -t 1600 ./data/cnfs//beemndhm4b3/beemndhm4b3.46.cnf

c --- [ banner ] -------------------------------------------------------------
c 
c CaDiCaL SAT Solver
c Copyright (c) 2016-2024
c A. Biere, M. Fleury, N. Froleyks, K. Fazekas, F. Pollitt, T. Faller
c JKU Linz, University of Freiburg, TU Wien
c 
c Version 2.1.3 5296d3d2a9bf48c154ab2acb5e44625776d821bf
c g++ (Gentoo 12.3.1_p20230526 p2) 12.3.1 20230526 -Wall -Wextra -O3 -DNDEBUG
c Sat Aug 9 07:26:21 PDT 2025 Linux cedar2.int.cedar.computecanada.ca 5.14.0-362.24.2.el9_3.x86_64 x86_64
c 
c --- [ limit ] --------------------------------------------------------------
c 
c setting time limit to 1600 seconds real time (due to '-t 1600')
c 
c --- [ parsing input ] ------------------------------------------------------
c 
c reading DIMACS file from './data/cnfs//beemndhm4b3/beemndhm4b3.46.cnf'
c opening file to read './data/cnfs//beemndhm4b3/beemndhm4b3.46.cnf'
c found 'p cnf 1092719 3208236' header
c parsed 3208236 clauses in 0.58 seconds process time
c 
c --- [ options ] ------------------------------------------------------------
c 
c   --compact=false                (different from default 'true')
c   --decompose=false              (different from default 'true')
c   --deduplicate=false            (different from default 'true')
c   --elim=false                   (different from default 'true')
c   --probe=false                  (different from default 'true')
c   --reduce=false                 (different from default 'true')
c   --subsume=false                (different from default 'true')
c   --ternary=false                (different from default 'true')
c   --transred=false               (different from default 'true')
c   --vivify=false                 (different from default 'true')
c 
c --- [ solving ] ------------------------------------------------------------
c 
c time measured in process time since initialization
c 
c  seconds   reductions  redundant   irredundant
c          MB    restarts       trail        variables
c           level   conflicts       glue           remaining
c 
c *  0.58 500  0 0   0    0    0  0% 0 3206205 969678 89%
c {  0.91 512  0 0   0    0    0  0% 0 3206205 969678 89%
c i  1.17 513 109 0  12  109  105 14% 2 3206205 969659 89%
c i  1.17 513 108 0  12  110  105 14% 2 3206205 969640 89%
c i  3.16 514 182 0  31  518  356 27% 12 3206205 969288 89%
c }  4.14 515 201 0  35 1000  782 37% 10 3206205 969114 89%
c [  4.14 515  0 0  35 1000  782  0% 0 3206205 969114 89%
c O  4.17 515 151 0  35 1002  784 43% 3 3206205 969114 89%
c i  4.25 516 171 0  35 1003  784 55% 2 3206205 969095 89%
c i  4.31 516 181 0  35 1004  784 60% 1 3206205 969076 89%
c i  4.38 516 187 0  35 1005  784 63% 1 3206205 969057 89%
c i  4.44 516 191 0  35 1006  784 65% 1 3206205 969038 89%
c i  4.49 516 194 0  35 1007  784 66% 1 3206205 969019 89%
c i  4.68 517 258 0  35 1044  785 52% 4 3206205 968335 89%
c i  4.81 517 272 0  35 1051  790 55% 4 3206205 968333 89%
c i  4.81 517 277 0  35 1054  791 56% 3 3206205 968331 89%
c i  4.81 517 281 0  35 1057  792 57% 3 3206205 968329 89%
c i  5.87 517 232 0  35 1345  992 37% 11 3206205 968328 89%
c i  5.88 517 231 0  35 1350  995 37% 11 3206205 968327 89%
c i  6.64 517 225 0  35 1499 1085 35% 11 3206205 968326 89%
c 
c  seconds    reductions  redundant    irredundant
c          MB     restarts       trail         variables
c            level   conflicts       glue            remaining
c 
c i  6.74 517 220 0  35 1537 1113 34% 10 3206205 968325 89%
c i  7.05 517 201 0  35 1638 1206 31% 9 3206205 968323 89%
c i  7.06 517 200 0  35 1645 1212 31% 9 3206205 968322 89%
c i  7.07 517 195 0  35 1679 1243 31% 9 3206205 968320 89%
c i  7.08 517 194 0  35 1685 1247 31% 9 3206205 968319 89%
c i  7.08 517 194 0  35 1686 1247 31% 9 3206205 968313 89%
c i  7.08 517 194 0  35 1687 1247 31% 9 3206205 968306 89%
c i  7.09 517 193 0  35 1692 1251 30% 9 3206205 968299 89%
c i  7.09 517 193 0  35 1693 1251 30% 9 3206205 968292 89%
c i  7.09 517 192 0  35 1697 1253 30% 9 3206205 968285 89%
c i  7.09 517 191 0  35 1698 1253 30% 9 3206205 968278 89%
c i  7.09 517 191 0  35 1699 1253 30% 9 3206205 968259 89%
c i  7.10 517 189 0  35 1704 1257 30% 9 3206205 968258 89%
c i  7.11 517 188 0  35 1709 1258 30% 9 3206205 968243 89%
c i  7.11 517 187 0  35 1712 1260 30% 8 3206205 968242 89%
c i  7.11 517 187 0  35 1714 1261 30% 8 3206205 968241 89%
c i  7.12 517 186 0  35 1717 1263 30% 8 3206205 968240 89%
c i  7.12 517 185 0  35 1719 1264 30% 8 3206205 968239 89%
c i  7.12 517 185 0  35 1720 1264 30% 8 3206205 968238 89%
c i  7.12 517 185 0  35 1721 1264 30% 8 3206205 968237 89%
c 
c  seconds    reductions  redundant   irredundant
c          MB     restarts       trail        variables
c            level   conflicts       glue           remaining
c 
c i  7.13 517 182 0  35 1730 1272 30% 8 3206205 968236 89%
c i  7.13 517 181 0  35 1733 1274 30% 8 3206205 968235 89%
c i  7.13 517 181 0  35 1734 1274 30% 8 3206205 968234 89%
c i  7.13 517 180 0  35 1739 1276 30% 8 3206205 968233 89%
... skipped 1869 lines ...
c             level      conflicts          glue            remaining
c 
c i 1481.71 785 71 0 17981 437441 352756 37% 15 2588108 886424 81%
c i 1482.04 785 71 0 17982 437525 352780 37% 15 2588108 886423 81%
c i 1490.49 785 71 0 18183 438956 353956 37% 15 2588108 886409 81%
c i 1491.19 785 71 0 18183 439228 354177 37% 15 2588108 886389 81%
c i 1491.41 785 71 0 18185 439339 354272 37% 15 2588108 886387 81%
c i 1492.12 785 71 0 18189 439494 354409 37% 15 2588108 886298 81%
c i 1512.69 785 71 0 18456 445442 359296 38% 15 2588108 886258 81%
c i 1512.85 785 71 0 18458 445493 359344 38% 15 2588108 886257 81%
c i 1517.69 785 70 0 18540 446605 360364 38% 15 2588108 886202 81%
c i 1517.98 785 71 0 18541 446919 360646 38% 15 2588108 886201 81%
c i 1517.98 785 71 0 18541 446920 360646 38% 15 2588108 886200 81%
c i 1517.98 785 71 0 18541 446925 360650 38% 15 2588108 886199 81%
c i 1517.98 785 71 0 18541 446932 360656 38% 15 2588108 886198 81%
c i 1517.99 785 71 0 18541 446939 360658 38% 15 2588108 886100 81%
c i 1518.16 785 71 0 18543 446994 360711 38% 15 2588108 886084 81%
c i 1518.16 785 71 0 18543 446998 360713 38% 15 2588108 886080 81%
c i 1526.67 785 71 0 18689 448828 362344 38% 15 2588108 886064 81%
c i 1526.76 785 71 0 18691 448835 362350 38% 15 2588108 885908 81%
c i 1530.02 785 71 0 18761 449637 363069 38% 15 2588108 885717 81%
c i 1530.13 785 71 0 18761 449675 363102 38% 15 2588108 885707 81%
c 
c   seconds    reductions       redundant     irredundant
c            MB     restarts            trail         variables
c             level      conflicts          glue            remaining
c 
c i 1533.17 785 71 0 18761 450739 364009 38% 15 2588108 885706 81%
c i 1533.46 785 71 0 18761 450876 364113 38% 15 2588108 885705 81%
c i 1535.65 785 70 0 18761 451502 364635 38% 15 2588108 885704 81%
c i 1545.84 785 70 0 18965 453665 366536 38% 15 2588108 885701 81%
c i 1548.29 785 70 0 19017 454279 367067 38% 15 2588108 885688 81%
c i 1569.94 785 70 0 19402 458826 370748 38% 15 2588108 885686 81%
c i 1570.03 785 70 0 19405 458836 370757 38% 15 2588108 885685 81%
c i 1570.07 785 70 0 19406 458837 370757 38% 15 2588108 885670 81%
c i 1570.10 785 70 0 19406 458838 370757 38% 15 2588108 885669 81%
c i 1570.13 785 70 0 19406 458839 370757 38% 15 2588108 885668 81%
c i 1571.83 785 70 0 19421 459366 371192 38% 15 2588108 885666 81%
c i 1583.02 785 70 0 19600 461665 373159 38% 15 2588108 885657 81%
c i 1587.97 785 70 0 19658 463191 374383 38% 15 2588108 885632 81%
c i 1588.07 785 70 0 19665 463387 374556 38% 15 2588108 885621 81%
c i 1588.09 785 70 0 19665 463746 374901 38% 15 2588108 885620 81%
c i 1588.13 785 71 0 19665 464339 375441 38% 15 2588108 885598 81%
c F 1590.16 785 71 0 19713 465129 376137 38% 15 2588108 885597 81%
c } 1590.85 785 71 0 19713 465291 376275 38% 15 2588108 885597 81%
c ? 1590.85 785 71 0 19713 465291 376275 38% 15 2588108 885597 81%
c 
c --- [ result ] -------------------------------------------------------------
c 
c UNKNOWN
c 
c --- [ run-time profiling ] -------------------------------------------------
c 
c process time taken by individual solving procedures
c (percentage relative to process time for solving)
c 
c      1590.26  100.00% search
c      1087.94   68.41% unstable
c       493.37   31.02% stable
c         8.62    0.54% walk
c         0.58    0.04% parse
c         0.33    0.02% lucky
c         0.00    0.00% simplify
c   =================================
c      1590.26   99.96% solve
c 
c last line shows process time for solving
c (percentage relative to total process time)
c 
c --- [ statistics ] ---------------------------------------------------------
c 
c chronological:            153062        32.90 %  of conflicts
c conflicts:                465291       292.59    per second
c decisions:               3018788      1898.29    per second
c fixed:                    207122        18.95 %  of all variables
c learned:                  422332        90.77 %  per conflict
c learned_lits:           99253426       100.00 %  learned literals
c minimized:                     0         0.00 %  learned literals
c shrunken:               24994221        25.18 %  learned literals
c minishrunken:           23683708        23.86 %  learned literals
c otfs:                       1953         0.42 %  of conflict
c propagations:        10353335102         6.51 M  per second
c rephased:                     30     15509.70    interval
c restarts:                  19713        23.60    interval
c stabilizing:                   4        36.54 %  of conflicts
c subsumed:                  29792         0.82 %  of all clauses
c strengthened:               1941         0.05 %  of all clauses
c walked:                        9     51699.00    interval
c 
c seconds are measured in process time for solving
c 
c --- [ resources ] ----------------------------------------------------------
c 
c total process time since initialization:      1590.85    seconds
c total real time since initialization:         1600.02    seconds
c maximum resident set size of process:         1017.60    MB
c 
c --- [ shutting down ] ------------------------------------------------------
c 
c exit 0
